QBPP_HJ+_30_025_06_2
30 269 59
39 14 22 33 45 49 45 27 15 49 39 49 13 14 23 29 21 33 33 32 20 3 8 15 38 25 29 22 4 18
    0    0    0    0    0    0    0    0    0   66    0    0    0    6    0    0    0    0    0    0   65    0    0   69   39    0    0    0    0    0
    0    0    0   14    0    0    0    0    0    0    0    0   76    0    0    0   83    0    0    0    0    0    0    0   56   98    0    0    0    0
    0    0    0    0    0    0   54   60   14    0    0    0    0    0   11    0    0    0    5    0    0    0    0    0    0    0    0   89    0   40
    0   14    0    0    0    0    0    0    0    0    0    0   12   51    0    0    6    0   71    0    0    0   45    0    0    0    0   33    0   69
    0    0    0    0    0    0    0    0    0    0   44    0    0    0    0    0   27    0    0    6    0    0   42    0    0    0    0   79    0    0
    0    0    0    0    0    0    0    0    0    0    0    0    0    0    0    0    0    0   44    0  100    0   91   17    0   49    0    0    7   15
    0    0   54    0    0    0    0    0    0    0   51    0    0    0   97    0   44   87    0    0    0    0   28   11    0   91   84   77    0   10
    0    0   60    0    0    0    0    0    0    0   90    0   75   56   16   66    0    0   99    0   36    0   66    0    0    0    0    0    0    0
    0    0   14    0    0    0    0    0    0    0    0    0    0    2    0    0    9   21    6   51    0   90    0    0    0    0    0    0   74    0
   66    0    0    0    0    0    0    0    0    0    0    0    0    0    0    0   99    0    0    0    0    0    0   87   35    0    0    0    0   90
    0    0    0    0   44    0   51   90    0    0    0   55   28    0    0    0    0    0    0   18    0    0    0    0    0   82    0    0   59    0
    0    0    0    0    0    0    0    0    0    0   55    0   99    0    0    0    0    0    0   45    0    0    0   17    0    0   45    0    0    0
    0   76    0   12    0    0    0   75    0    0   28   99    0    0    0    0    0    0    0    0   11    0   46    0    0    0   14   65    0    0
    6    0    0   51    0    0    0   56    2    0    0    0    0    0    0    0    0    0    0    0    0    0    0   84   98    0    0    0    0    0
    0    0   11    0    0    0   97   16    0    0    0    0    0    0    0   23   69    0    0    0    0    0   11   88    0    0    0   63   32    0
    0    0    0    0    0    0    0   66    0    0    0    0    0    0   23    0    0    0    0    0    0    0    0    0    4   31    0    0    0    0
    0   83    0    6   27    0   44    0    9   99    0    0    0    0   69    0    0    0    0    0    0   53    0    0    0    0   20   48    0   31
    0    0    0    0    0    0   87    0   21    0    0    0    0    0    0    0    0    0    0    0    9    0    0   57    0    0    0    0    0    0
    0    0    5   71    0   44    0   99    6    0    0    0    0    0    0    0    0    0    0    0    0   59    0    0    0    0    0    0    0    0
    0    0    0    0    6    0    0    0   51    0   18   45    0    0    0    0    0    0    0    0    0    0   50    0    0    0    0    0    0    0
   65    0    0    0    0  100    0   36    0    0    0    0   11    0    0    0    0    9    0    0    0    0    0    0    1    0    0    0   60    4
    0    0    0    0    0    0    0    0   90    0    0    0    0    0    0    0   53    0   59    0    0    0    0   22   95    0    0    0    0    0
    0    0    0   45   42   91   28   66    0    0    0    0   46    0   11    0    0    0    0   50    0    0    0    0    0    0   84    0    0   29
   69    0    0    0    0   17   11    0    0   87    0   17    0   84   88    0    0   57    0    0    0   22    0    0    0    0    6    0    0   61
   39   56    0    0    0    0    0    0    0   35    0    0    0   98    0    4    0    0    0    0    1   95    0    0    0    0    0   81   86    0
    0   98    0    0    0   49   91    0    0    0   82    0    0    0    0   31    0    0    0    0    0    0    0    0    0    0   66    0    0   82
    0    0    0    0    0    0   84    0    0    0    0   45   14    0    0    0   20    0    0    0    0    0   84    6    0   66    0    0    0    0
    0    0   89   33   79    0   77    0    0    0    0    0   65    0   63    0   48    0    0    0    0    0    0    0   81    0    0    0    0    0
    0    0    0    0    0    7    0    0   74    0   59    0    0    0   32    0    0    0    0    0   60    0    0    0   86    0    0    0    0    0
    0    0   40   69    0   15   10    0    0   90    0    0    0    0    0    0   31    0    0    0    4    0   29   61    0   82    0    0    0    0
